50
1 0 3
2 0 2
2 1 3
3 0 1
3 1 1
3 2 4
4 0 2
4 1 5
4 2 1
4 3 4
5 0 1
5 1 2
5 2 2
5 3 3
5 4 2
6 0 1
6 1 2
6 2 1
6 3 4
6 4 3
6 5 2
7 0 2
7 1 2
7 2 1
7 3 4
7 4 5
7 5 3
7 6 1
8 0 4
8 1 4
8 2 3
8 3 4
8 4 5
8 5 5
8 6 5
8 7 4
9 0 1
9 1 5
9 2 1
9 3 1
9 4 5
9 5 4
9 6 5
9 7 2
9 8 5
10 0 5
10 1 1
10 2 4
10 3 1
10 4 1
10 5 2
10 6 5
10 7 2
10 8 2
10 9 2
11 0 5
11 1 1
11 2 2
11 3 4
11 4 4
11 5 3
11 6 2
11 7 5
11 8 4
11 9 3
11 10 4
12 0 3
12 1 1
12 2 2
12 3 5
12 4 1
12 5 3
12 6 3
12 7 4
12 8 4
12 9 5
12 10 4
12 11 3
13 0 4
13 1 3
13 2 3
13 3 5
13 4 3
13 5 1
13 6 1
13 7 5
13 8 5
13 9 1
13 10 5
13 11 3
13 12 2
14 0 3
14 1 4
14 2 3
14 3 1
14 4 2
14 5 1
14 6 4
14 7 2
14 8 3
14 9 4
14 10 4
14 11 5
14 12 5
14 13 3
15 0 3
15 1 1
15 2 2
15 3 4
15 4 2
15 5 4
15 6 3
15 7 5
15 8 5
15 9 1
15 10 3
15 11 2
15 12 2
15 13 3
15 14 5
16 0 4
16 1 1
16 2 2
16 3 1
16 4 2
16 5 2
16 6 2
16 7 2
16 8 1
16 9 3
16 10 3
16 11 5
16 12 3
16 13 3
16 14 4
16 15 4
17 0 3
17 1 4
17 2 5
17 3 4
17 4 1
17 5 2
17 6 2
17 7 5
17 8 4
17 9 3
17 10 5
17 11 3
17 12 1
17 13 4
17 14 5
17 15 4
17 16 4
18 0 4
18 1 5
18 2 2
18 3 4
18 4 5
18 5 1
18 6 5
18 7 3
18 8 5
18 9 3
18 10 3
18 11 3
18 12 3
18 13 4
18 14 3
18 15 1
18 16 1
18 17 1
19 0 5
19 1 5
19 2 4
19 3 1
19 4 4
19 5 2
19 6 3
19 7 4
19 8 1
19 9 3
19 10 3
19 11 4
19 12 3
19 13 2
19 14 5
19 15 1
19 16 3
19 17 2
19 18 1
20 0 3
20 1 5
20 2 1
20 3 5
20 4 4
20 5 1
20 6 3
20 7 3
20 8 4
20 9 3
20 10 4
20 11 2
20 12 4
20 13 4
20 14 5
20 15 5
20 16 5
20 17 1
20 18 3
20 19 4
21 0 4
21 1 4
21 2 5
21 3 3
21 4 3
21 5 1
21 6 3
21 7 5
21 8 2
21 9 2
21 10 5
21 11 2
21 12 1
21 13 2
21 14 3
21 15 2
21 16 4
21 17 4
21 18 4
21 19 3
21 20 4
22 0 2
22 1 5
22 2 1
22 3 1
22 4 2
22 5 3
22 6 4
22 7 1
22 8 3
22 9 2
22 10 1
22 11 2
22 12 5
22 13 4
22 14 3
22 15 1
22 16 4
22 17 1
22 18 1
22 19 3
22 20 3
22 21 3
23 0 1
23 1 4
23 2 3
23 3 5
23 4 2
23 5 1
23 6 2
23 7 5
23 8 5
23 9 4
23 10 2
23 11 1
23 12 5
23 13 2
23 14 3
23 15 5
23 16 2
23 17 5
23 18 3
23 19 2
23 20 2
23 21 5
23 22 2
24 0 4
24 1 1
24 2 5
24 3 1
24 4 2
24 5 1
24 6 1
24 7 5
24 8 4
24 9 5
24 10 5
24 11 5
24 12 4
24 13 2
24 14 5
24 15 3
24 16 1
24 17 4
24 18 5
24 19 2
24 20 3
24 21 5
24 22 5
24 23 1
25 0 5
25 1 4
25 2 1
25 3 2
25 4 3
25 5 2
25 6 2
25 7 5
25 8 1
25 9 1
25 10 1
25 11 4
25 12 5
25 13 3
25 14 2
25 15 4
25 16 2
25 17 1
25 18 1
25 19 5
25 20 2
25 21 3
25 22 1
25 23 1
25 24 2
26 0 4
26 1 3
26 2 3
26 3 1
26 4 5
26 5 1
26 6 5
26 7 5
26 8 1
26 9 4
26 10 3
26 11 1
26 12 4
26 13 4
26 14 2
26 15 3
26 16 2
26 17 5
26 18 5
26 19 4
26 20 4
26 21 2
26 22 3
26 23 1
26 24 2
26 25 2
27 0 1
27 1 5
27 2 4
27 3 2
27 4 4
27 5 4
27 6 5
27 7 2
27 8 2
27 9 1
27 10 1
27 11 4
27 12 2
27 13 5
27 14 2
27 15 5
27 16 4
27 17 2
27 18 3
27 19 4
27 20 1
27 21 2
27 22 2
27 23 1
27 24 3
27 25 1
27 26 1
28 0 1
28 1 1
28 2 1
28 3 3
28 4 1
28 5 3
28 6 2
28 7 2
28 8 4
28 9 5
28 10 1
28 11 4
28 12 5
28 13 1
28 14 4
28 15 5
28 16 5
28 17 1
28 18 5
28 19 1
28 20 5
28 21 3
28 22 5
28 23 2
28 24 2
28 25 2
28 26 2
28 27 2
29 0 5
29 1 3
29 2 4
29 3 2
29 4 3
29 5 1
29 6 2
29 7 2
29 8 2
29 9 3
29 10 1
29 11 2
29 12 5
29 13 3
29 14 4
29 15 1
29 16 4
29 17 5
29 18 5
29 19 5
29 20 5
29 21 1
29 22 5
29 23 2
29 24 5
29 25 2
29 26 3
29 27 4
29 28 1
30 0 3
30 1 4
30 2 4
30 3 4
30 4 3
30 5 5
30 6 4
30 7 5
30 8 2
30 9 3
30 10 3
30 11 4
30 12 4
30 13 2
30 14 4
30 15 5
30 16 4
30 17 1
30 18 1
30 19 4
30 20 5
30 21 1
30 22 1
30 23 3
30 24 5
30 25 4
30 26 1
30 27 5
30 28 4
30 29 2
31 0 4
31 1 2
31 2 3
31 3 2
31 4 1
31 5 4
31 6 4
31 7 3
31 8 5
31 9 3
31 10 3
31 11 1
31 12 4
31 13 1
31 14 2
31 15 3
31 16 3
31 17 3
31 18 4
31 19 5
31 20 2
31 21 1
31 22 1
31 23 3
31 24 5
31 25 2
31 26 1
31 27 3
31 28 4
31 29 4
31 30 3
32 0 4
32 1 2
32 2 5
32 3 1
32 4 3
32 5 4
32 6 4
32 7 3
32 8 5
32 9 1
32 10 4
32 11 5
32 12 3
32 13 2
32 14 5
32 15 2
32 16 3
32 17 2
32 18 3
32 19 1
32 20 5
32 21 1
32 22 5
32 23 3
32 24 2
32 25 4
32 26 1
32 27 1
32 28 2
32 29 3
32 30 3
32 31 1
33 0 4
33 1 5
33 2 4
33 3 2
33 4 5
33 5 1
33 6 4
33 7 3
33 8 3
33 9 2
33 10 1
33 11 3
33 12 2
33 13 5
33 14 3
33 15 5
33 16 3
33 17 2
33 18 1
33 19 1
33 20 2
33 21 3
33 22 5
33 23 2
33 24 5
33 25 4
33 26 3
33 27 3
33 28 2
33 29 2
33 30 3
33 31 4
33 32 5
34 0 5
34 1 1
34 2 1
34 3 5
34 4 2
34 5 1
34 6 5
34 7 1
34 8 3
34 9 4
34 10 4
34 11 1
34 12 2
34 13 1
34 14 2
34 15 4
34 16 2
34 17 4
34 18 1
34 19 2
34 20 3
34 21 2
34 22 1
34 23 1
34 24 3
34 25 1
34 26 2
34 27 1
34 28 3
34 29 1
34 30 2
34 31 2
34 32 3
34 33 4
35 0 1
35 1 1
35 2 2
35 3 4
35 4 1
35 5 2
35 6 2
35 7 5
35 8 4
35 9 3
35 10 2
35 11 1
35 12 4
35 13 3
35 14 2
35 15 3
35 16 3
35 17 1
35 18 3
35 19 5
35 20 5
35 21 2
35 22 1
35 23 5
35 24 1
35 25 3
35 26 4
35 27 4
35 28 5
35 29 1
35 30 1
35 31 1
35 32 3
35 33 1
35 34 4
36 0 1
36 1 3
36 2 3
36 3 5
36 4 4
36 5 5
36 6 4
36 7 1
36 8 5
36 9 2
36 10 2
36 11 1
36 12 5
36 13 5
36 14 4
36 15 5
36 16 4
36 17 3
36 18 4
36 19 2
36 20 5
36 21 2
36 22 2
36 23 5
36 24 3
36 25 3
36 26 3
36 27 3
36 28 5
36 29 2
36 30 4
36 31 3
36 32 2
36 33 3
36 34 4
36 35 1
37 0 4
37 1 2
37 2 3
37 3 2
37 4 4
37 5 2
37 6 2
37 7 2
37 8 2
37 9 4
37 10 1
37 11 3
37 12 3
37 13 4
37 14 2
37 15 5
37 16 4
37 17 2
37 18 1
37 19 3
37 20 1
37 21 4
37 22 1
37 23 5
37 24 4
37 25 3
37 26 1
37 27 1
37 28 4
37 29 4
37 30 2
37 31 1
37 32 1
37 33 3
37 34 5
37 35 3
37 36 3
38 0 4
38 1 4
38 2 1
38 3 1
38 4 3
38 5 1
38 6 1
38 7 3
38 8 4
38 9 4
38 10 4
38 11 4
38 12 2
38 13 1
38 14 5
38 15 2
38 16 5
38 17 2
38 18 2
38 19 4
38 20 4
38 21 3
38 22 3
38 23 3
38 24 2
38 25 2
38 26 3
38 27 1
38 28 2
38 29 3
38 30 5
38 31 1
38 32 4
38 33 1
38 34 1
38 35 2
38 36 1
38 37 3
39 0 2
39 1 2
39 2 4
39 3 3
39 4 3
39 5 2
39 6 3
39 7 4
39 8 3
39 9 4
39 10 2
39 11 3
39 12 4
39 13 5
39 14 5
39 15 5
39 16 5
39 17 4
39 18 1
39 19 1
39 20 5
39 21 5
39 22 1
39 23 2
39 24 4
39 25 5
39 26 3
39 27 5
39 28 4
39 29 1
39 30 4
39 31 3
39 32 3
39 33 1
39 34 1
39 35 2
39 36 1
39 37 1
39 38 3
40 0 3
40 1 4
40 2 2
40 3 2
40 4 5
40 5 3
40 6 5
40 7 3
40 8 2
40 9 3
40 10 3
40 11 4
40 12 5
40 13 4
40 14 4
40 15 4
40 16 1
40 17 5
40 18 4
40 19 3
40 20 5
40 21 3
40 22 5
40 23 3
40 24 1
40 25 4
40 26 3
40 27 1
40 28 4
40 29 4
40 30 3
40 31 3
40 32 1
40 33 3
40 34 2
40 35 1
40 36 2
40 37 2
40 38 5
40 39 5
41 0 2
41 1 4
41 2 3
41 3 2
41 4 5
41 5 2
41 6 4
41 7 5
41 8 5
41 9 5
41 10 5
41 11 1
41 12 2
41 13 2
41 14 5
41 15 3
41 16 1
41 17 2
41 18 2
41 19 5
41 20 2
41 21 3
41 22 3
41 23 2
41 24 2
41 25 5
41 26 2
41 27 5
41 28 2
41 29 5
41 30 3
41 31 5
41 32 4
41 33 4
41 34 4
41 35 3
41 36 3
41 37 5
41 38 5
41 39 2
41 40 1
42 0 5
42 1 5
42 2 5
42 3 5
42 4 3
42 5 4
42 6 1
42 7 1
42 8 1
42 9 3
42 10 2
42 11 5
42 12 1
42 13 4
42 14 1
42 15 5
42 16 3
42 17 3
42 18 2
42 19 5
42 20 2
42 21 4
42 22 5
42 23 1
42 24 5
42 25 5
42 26 1
42 27 1
42 28 2
42 29 5
42 30 2
42 31 5
42 32 3
42 33 5
42 34 4
42 35 2
42 36 4
42 37 4
42 38 5
42 39 2
42 40 4
42 41 5
43 0 5
43 1 4
43 2 1
43 3 3
43 4 5
43 5 3
43 6 3
43 7 5
43 8 1
43 9 3
43 10 3
43 11 3
43 12 4
43 13 2
43 14 1
43 15 3
43 16 4
43 17 4
43 18 2
43 19 4
43 20 3
43 21 5
43 22 1
43 23 4
43 24 4
43 25 4
43 26 3
43 27 2
43 28 3
43 29 3
43 30 1
43 31 2
43 32 1
43 33 2
43 34 2
43 35 3
43 36 4
43 37 4
43 38 3
43 39 5
43 40 5
43 41 1
43 42 4
44 0 2
44 1 3
44 2 2
44 3 1
44 4 4
44 5 3
44 6 4
44 7 4
44 8 1
44 9 2
44 10 5
44 11 1
44 12 2
44 13 5
44 14 5
44 15 5
44 16 4
44 17 2
44 18 5
44 19 2
44 20 5
44 21 1
44 22 1
44 23 2
44 24 4
44 25 5
44 26 1
44 27 3
44 28 1
44 29 3
44 30 4
44 31 5
44 32 3
44 33 1
44 34 3
44 35 1
44 36 3
44 37 1
44 38 4
44 39 5
44 40 1
44 41 3
44 42 1
44 43 5
45 0 1
45 1 2
45 2 1
45 3 5
45 4 2
45 5 5
45 6 2
45 7 4
45 8 1
45 9 2
45 10 4
45 11 5
45 12 4
45 13 2
45 14 2
45 15 5
45 16 5
45 17 4
45 18 2
45 19 2
45 20 1
45 21 2
45 22 1
45 23 1
45 24 1
45 25 4
45 26 4
45 27 5
45 28 2
45 29 5
45 30 5
45 31 4
45 32 3
45 33 2
45 34 5
45 35 4
45 36 1
45 37 3
45 38 3
45 39 1
45 40 4
45 41 4
45 42 4
45 43 1
45 44 5
46 0 3
46 1 4
46 2 5
46 3 4
46 4 4
46 5 3
46 6 4
46 7 4
46 8 1
46 9 4
46 10 1
46 11 3
46 12 5
46 13 4
46 14 4
46 15 1
46 16 4
46 17 5
46 18 4
46 19 3
46 20 5
46 21 5
46 22 1
46 23 1
46 24 4
46 25 4
46 26 5
46 27 4
46 28 2
46 29 5
46 30 3
46 31 5
46 32 5
46 33 4
46 34 1
46 35 5
46 36 3
46 37 2
46 38 4
46 39 1
46 40 2
46 41 2
46 42 3
46 43 2
46 44 3
46 45 5
47 0 5
47 1 3
47 2 2
47 3 2
47 4 2
47 5 2
47 6 4
47 7 3
47 8 3
47 9 4
47 10 1
47 11 5
47 12 4
47 13 5
47 14 1
47 15 1
47 16 1
47 17 3
47 18 3
47 19 2
47 20 5
47 21 5
47 22 5
47 23 5
47 24 4
47 25 4
47 26 1
47 27 1
47 28 2
47 29 3
47 30 4
47 31 2
47 32 3
47 33 5
47 34 4
47 35 4
47 36 1
47 37 4
47 38 5
47 39 2
47 40 3
47 41 1
47 42 4
47 43 3
47 44 5
47 45 1
47 46 1
48 0 2
48 1 3
48 2 1
48 3 1
48 4 5
48 5 1
48 6 3
48 7 5
48 8 1
48 9 4
48 10 1
48 11 3
48 12 4
48 13 2
48 14 5
48 15 5
48 16 2
48 17 1
48 18 2
48 19 3
48 20 1
48 21 1
48 22 2
48 23 1
48 24 4
48 25 1
48 26 2
48 27 3
48 28 3
48 29 3
48 30 2
48 31 5
48 32 1
48 33 5
48 34 4
48 35 5
48 36 4
48 37 5
48 38 5
48 39 1
48 40 4
48 41 3
48 42 4
48 43 4
48 44 3
48 45 3
48 46 3
48 47 2
49 0 2
49 1 4
49 2 1
49 3 2
49 4 2
49 5 4
49 6 4
49 7 1
49 8 3
49 9 4
49 10 4
49 11 3
49 12 5
49 13 1
49 14 2
49 15 5
49 16 3
49 17 3
49 18 1
49 19 5
49 20 2
49 21 1
49 22 2
49 23 2
49 24 3
49 25 3
49 26 5
49 27 1
49 28 2
49 29 3
49 30 2
49 31 1
49 32 1
49 33 2
49 34 4
49 35 1
49 36 1
49 37 5
49 38 1
49 39 2
49 40 4
49 41 4
49 42 2
49 43 3
49 44 1
49 45 4
49 46 4
49 47 5
49 48 4
